0 52 53 42 43 60 66 67 59 58 57 51 89 35 34 32 33 48 49 47 31 24 28 25 1 29 26 30 27 81 88 85 82 95 86 83 87 84 46 14 12 13 23 20 16 19 15 22 18 21 17 96 92 93 94 90 91 97 36 41 40 74 79 78 77 76 75 39 38 37 80 69 61 62 64 63 3 70 73 72 71 2 56 50 98 8 7 6 5 4 11 10 9 68 65 44 45 99 54 55 0 